20140618 20 0 0 0
20130513 120 0 0 0
20120509 120 0 0 0
20110429 120 0 0 0
20100428 100 8000 0 0
20090519 80 0 0 0
20080530 80 1000 0 0
20070705 80 0 0 0
20060530 80 1000 0 0
20051205 0 3200 0 0
20050422 169 3000 0 0
20040609 168 0 0 0
20030610 160 0 0 0
20020617 141 0 0 0
20010411 233 6000 0 0
